WARNING: for repeatability, setting FPU to use double precision
============================[ Problem Statistics ]=============================
|                                                                             |
|  Number of variables:           800                                         |
|  Number of clauses:           33490                                         |
|  Parse time:                   0.01 s                                       |
|                                                                             |
c ============================[ Search Statistics ]==============================
c | Conflicts |          ORIGINAL         |          LEARNT          | Progress |
c |           |    Vars  Clauses Literals |    Limit  Clauses Lit/Cl |          |
c ===============================================================================
c Switched to VSIDS.
c Switched to LRB.
c Switched to VSIDS.
c Switched to LRB.
c Switched to VSIDS.
c Switched to LRB.
c Switched to VSIDS.
c Switched to LRB.
c Switched to VSIDS.
c Switched to LRB.
c Switched to VSIDS.
c Switched to LRB.
c Switched to VSIDS.
c ===============================================================================
restarts                  : 88327
conflicts                 : 18712732       (5311 /sec)
decisions                 : 37588174       (0.00 % random) (10668 /sec)
propagations              : 832792302      (236358 /sec)
conflict literals         : 5238975961     (8.72 % deleted)

conflicts w/ DIP found    : 11451311       (61.20 % of conflicts)
conflicts w/ dangerous DIP: 0              (0.00 % of conflicts)
conflicts w/ DIP-learning : 7143           (0.04 % of conflicts)
decisions on ext vars     : 1078           (0.00 % of decisions)
total ext vars            : 1730        
tried delete ext vars     : 1251        
deleted ext vars          : 1251        
max ext vars              : 713         

Memory used               : 311.00 MB
CPU time                  : 3523.44 s
DIP computation time      : 99.501 s (2.82 % of total time)
ER_sel time               : 35.6762 s
ER_add time               : 0.009889 s
ER_delC time              : 0 s
ER_delV time              : 0.830767 s
ER_sub time               : 38.5737 s
ER_stat time              : 0 s

INDETERMINATE
